(set-info :status unsat)
(declare-datatypes ((T 0)) ((
  (f0)
  (f1 (proj0f1 T) (proj1f1 T) (proj2f1 T) (proj3f1 T)))))
(assert (exists ((y15511 T) (y15510 T) (y15513 T) (y15530 T) (y15515 T) (y15514 T) (y15517 T) (y15516 T) (y15519 T) (y15532 T) (y15526 T) (y15527 T) (y15520 T) (y15522 T) (y15533 T) (y15535 T) (y15528 T) (y15531 T) (y15529 T)) (forall ((x15538 T) (x15545 T) (x15544 T) (x15536 T) (x15537 T) (x15540 T) (x15543 T) (x15542 T)) 
  (or 
    (and (= y15510 (f1 y15511 y15510 x15543 x15543)) (= y15511 (f1 x15536 (f1 x15543 x15543 x15543 x15543) (f1 x15543 x15543 x15543 x15543) (f1 x15543 (f1 x15543 x15543 x15543 x15543) (f1 x15543 x15543 x15543 x15543) (f1 x15543 x15543 x15543 x15543)))) (= x15536 (f1 y15513 (f1 x15543 x15543 x15543 x15543) x15543 x15543)) (= y15513 (f1 y15510 x15543 x15543 x15543))) 
    (and (= y15514 (f1 (f1 (f1 y15514 x15543 x15543 x15543) y15515 (f1 x15543 x15543 x15543 x15543) (f1 x15543 x15543 x15543 x15543)) (f1 x15543 x15543 x15543 x15543) x15543 (f1 (f1 x15543 x15543 x15543 x15543) (f1 x15543 x15543 x15543 x15543) (f1 x15543 x15543 x15543 x15543) x15543))) (= y15515 (f1 y15514 x15543 x15543 x15543))) 
    (and (= y15516 (f1 y15517 y15516 x15543 (f1 x15543 x15543 x15543 x15543))) (= y15517 (f1 x15545 (f1 x15543 x15543 x15543 x15543) x15543 x15543)) (= x15545 (f1 y15516 x15543 x15543 x15543))) 
    (and (= y15519 (f1 y15520 y15519 (f1 x15543 x15543 x15543 x15543) (f1 (f1 (f1 x15543 x15543 x15543 x15543) (f1 x15543 x15543 x15543 x15543) x15543 x15543) (f1 x15543 x15543 x15543 x15543) x15543 (f1 x15543 x15543 x15543 x15543)))) (= y15520 (f1 x15538 x15543 (f1 x15543 (f1 x15543 x15543 x15543 x15543) x15543 (f1 x15543 x15543 x15543 x15543)) x15543)) (= x15538 (f1 y15522 (f1 x15543 x15543 x15543 x15543) x15543 (f1 x15543 x15543 x15543 x15543))) (= y15522 (f1 y15519 x15543 x15543 x15543))) 
    (and (= x15542 (f1 x15544 (f1 (f1 x15543 x15543 x15543 x15543) (f1 x15543 x15543 x15543 x15543) x15543 (f1 x15543 x15543 x15543 x15543)) (f1 x15543 x15543 x15543 x15543) x15543)) (= x15544 (f1 x15540 x15543 (f1 x15543 x15543 x15543 x15543) (f1 x15543 x15543 x15543 x15543))) (= x15540 (f1 x15542 x15543 x15543 x15543))) 
    (and (= y15526 (f1 y15527 x15543 (f1 (f1 x15543 x15543 x15543 x15543) (f1 x15543 x15543 x15543 x15543) (f1 x15543 x15543 x15543 x15543) x15543) (f1 x15543 x15543 x15543 x15543))) (= y15527 (f1 y15528 x15543 (f1 x15543 x15543 x15543 x15543) x15543)) (= y15528 (f1 y15526 x15543 x15543 x15543))) 
    (and (= y15529 (f1 (f1 (f1 (f1 y15529 x15543 x15543 x15543) (f1 x15543 x15543 x15543 x15543) x15543 x15543) x15543 (f1 (f1 x15543 x15543 x15543 x15543) (f1 x15543 x15543 x15543 x15543) (f1 x15543 x15543 x15543 x15543) (f1 x15543 x15543 x15543 x15543)) (f1 (f1 x15543 x15543 x15543 x15543) (f1 x15543 x15543 x15543 x15543) x15543 (f1 x15543 x15543 x15543 x15543))) y15530 (f1 x15543 (f1 x15543 x15543 x15543 x15543) (f1 x15543 x15543 x15543 x15543) (f1 x15543 x15543 x15543 x15543)) (f1 (f1 (f1 x15543 x15543 x15543 x15543) x15543 (f1 (f1 x15543 x15543 x15543 x15543) (f1 x15543 x15543 x15543 x15543) (f1 x15543 x15543 x15543 x15543) x15543) (f1 (f1 x15543 x15543 x15543 x15543) x15543 (f1 x15543 x15543 x15543 x15543) (f1 x15543 x15543 x15543 x15543))) (f1 x15543 x15543 x15543 (f1 x15543 x15543 x15543 x15543)) (f1 x15543 x15543 x15543 x15543) (f1 x15543 x15543 x15543 x15543)))) (= y15530 (f1 y15531 (f1 (f1 x15543 (f1 x15543 x15543 x15543 x15543) (f1 x15543 x15543 x15543 x15543) (f1 x15543 x15543 x15543 x15543)) x15543 (f1 x15543 x15543 x15543 x15543) x15543) (f1 x15543 x15543 x15543 x15543) x15543)) (= y15531 (f1 y15532 (f1 (f1 x15543 x15543 x15543 x15543) x15543 x15543 x15543) (f1 (f1 x15543 x15543 x15543 x15543) x15543 x15543 (f1 x15543 x15543 x15543 x15543)) (f1 x15543 x15543 x15543 x15543))) (= y15532 (f1 y15533 x15543 x15543 x15543)) (= y15533 (f1 y15529 x15543 x15543 x15543))) 
    (and (= x15537 (f1 (f1 x15537 x15543 x15543 x15543) (f1 x15543 x15543 x15543 x15543) y15535 (f1 x15543 x15543 x15543 x15543))) (= y15535 (f1 x15537 x15543 x15543 x15543)))))))
(check-sat)
